&CONTROL
  calculation = 'scf',
  tprnfor = .true.,
  prefix = 'qe',
  etot_conv_thr = 0.00073496986,  ! 0.01 eV / slab
  forc_conv_thr = 0.003889380791, ! 0.1 eV/Angstrom
  pseudo_dir = '../PSPs/'
  tefield = .true.,
  dipfield = .true.,
/

&SYSTEM
  ibrav = 0,
  ntyp = 2,
  ecutwfc = 50,
  occupations = 'smearing',
  degauss = 0.001,
  smearing = 'gaussian',
  edir = 3,
  emaxpos = 0.7,
/

&ELECTRONS
  electron_maxstep = 200,
  conv_thr = 0.000073496986,      ! 0.001 eV / slab
  mixing_mode = 'local-TF',
/

&IONS
/

ATOMIC_SPECIES
 Ag  196.966543  ag.upf
 O    15.9994     o.upf

K_POINTS automatic
2 2 1 1 1 0

CELL_PARAMETERS (angstrom)

ATOMIC_POSITIONS (angstrom)
