&CONTROL
calculation = 'scf',
tprnfor = .true.,
prefix = 'qe',
pseudo_dir = '../PSPs/'
/

&SYSTEM
ibrav = 0,
ntyp = 3,
ecutwfc = 50,
!nosym = .true.,
occupations = 'smearing',
degauss = 0.001,
smearing = 'gaussian',
/

&ELECTRONS
conv_thr = 1.0D-4,
mixing_mode = 'local-TF',
/

ATOMIC_SPECIES
O  15.9994 o.upf 
Ti 47.88   ti.upf
Sr 87.62   sr.upf

K_POINTS (automatic)
2 2 1 1 1 0

CELL_PARAMETERS (angstrom)

ATOMIC_POSITIONS (angstrom)
