&CONTROL
  calculation = 'scf',
  tprnfor = .true.,
  prefix = 'qe',
  etot_conv_thr = 1.0D-2,
  forc_conv_thr = 1.0D-1,
  pseudo_dir = '../PSPs/'
  tefield = .true.,
  dipfield = .true.,
/

&SYSTEM
  ibrav = 0,
  ntyp = 2,
  ecutwfc = 50,
!  nosym = .true.,
  occupations = 'smearing',
  degauss = 0.001,
  smearing = 'gaussian',
  edir = 3,
  emaxpos = 0.7,
!  vdw_corr = 'TS',
/

&ELECTRONS
  electron_maxstep = 200,
  conv_thr = 1.D-3,
  mixing_mode = 'local-TF',
  startingwfc = 'atomic',
/

&IONS
/

ATOMIC_SPECIES
 Ag  196.966543  ag.upf
 O  15.9994  o.upf

K_POINTS automatic
2 2 1 1 1 0

CELL_PARAMETERS (angstrom)

ATOMIC_POSITIONS (angstrom)
